\ Model Plasmids_copy
\ LP format - for model browsing. Use MPS format to capture full model detail.
Minimize
 
Subject To
 extr_ubd: contigext-17t_plasmid-0 <= 0.99
 extr_ubd: contigext-17h_plasmid-0 <= 0.99
 extr_ubd: contigext-12h_plasmid-0 <= 0.99
 extr_ubd: contigext-12t_plasmid-0 <= 0.99
 contig_ubd: contig-12_plasmid-0 - 0.5 contigext-12h_plasmid-0
   - 0.5 contigext-12t_plasmid-0 <= 0.99
 contig_ubd: contig-17_plasmid-0 - 0.5 contigext-17h_plasmid-0
   - 0.5 contigext-17t_plasmid-0 <= 0.99
 counted_seed: counted-seed_contig-56_plasmid-0 = 0
 counted_seed: counted-seed_contig-28_plasmid-0 = 0
 counted_seed: counted-seed_contig-30_plasmid-0 = 0
 counted_seed: counted-seed_contig-60_plasmid-0 = 0
 counted_seed: counted-seed_contig-61_plasmid-0 = 0
 counted_seed: counted-seed_contig-62_plasmid-0 = 0
 counted_seed: counted-seed_contig-63_plasmid-0 = 0
 counted_seed: counted-seed_contig-64_plasmid-0 = 0
 counted_seed: counted-seed_contig-65_plasmid-0 = 0
 counted_seed: counted-seed_contig-66_plasmid-0 = 0
 counted_seed: counted-seed_contig-67_plasmid-0 = 0
 counted_seed: counted-seed_contig-68_plasmid-0 = 0
 counted_seed: counted-seed_contig-69_plasmid-0 = 0
 counted_seed: counted-seed_contig-32_plasmid-0 = 0
 counted_seed: counted-seed_contig-24_plasmid-0 = 0
 counted_seed: counted-seed_contig-25_plasmid-0 = 0
 counted_seed: counted-seed_contig-27_plasmid-0 = 0
 counted_seed: counted-seed_contig-20_plasmid-0 = 0
 counted_seed: counted-seed_contig-21_plasmid-0 = 0
 counted_seed: counted-seed_contig-48_plasmid-0 = 0
 counted_seed: counted-seed_contig-23_plasmid-0 = 0
 counted_seed: counted-seed_contig-46_plasmid-0 = 0
 counted_seed: counted-seed_contig-47_plasmid-0 = 0
 counted_seed: counted-seed_contig-44_plasmid-0 = 0
 counted_seed: counted-seed_contig-45_plasmid-0 = 0
 counted_seed: counted-seed_contig-42_plasmid-0 = 0
 counted_seed: counted-seed_contig-29_plasmid-0 = 0
 counted_seed: counted-seed_contig-41_plasmid-0 = 0
 counted_seed: counted-seed_contig-35_plasmid-0 = 0
 counted_seed: counted-seed_contig-3_plasmid-0 = 0
 counted_seed: counted-seed_contig-7_plasmid-0 = 0
 counted_seed: - contig-12_plasmid-0 + counted-seed_contig-12_plasmid-0
   = 0
 counted_seed: counted-seed_contig-73_plasmid-0 = 0
 counted_seed: counted-seed_contig-72_plasmid-0 = 0
 counted_seed: counted-seed_contig-71_plasmid-0 = 0
 counted_seed: counted-seed_contig-70_plasmid-0 = 0
 counted_seed: counted-seed_contig-15_plasmid-0 = 0
 counted_seed: counted-seed_contig-14_plasmid-0 = 0
 counted_seed: counted-seed_contig-11_plasmid-0 = 0
 counted_seed: counted-seed_contig-39_plasmid-0 = 0
 counted_seed: counted-seed_contig-38_plasmid-0 = 0
 counted_seed: counted-seed_contig-59_plasmid-0 = 0
 counted_seed: counted-seed_contig-58_plasmid-0 = 0
 counted_seed: - contig-17_plasmid-0 + counted-seed_contig-17_plasmid-0
   = 0
 counted_seed: counted-seed_contig-16_plasmid-0 = 0
 counted_seed: counted-seed_contig-19_plasmid-0 = 0
 counted_seed: counted-seed_contig-54_plasmid-0 = 0
 counted_seed: counted-seed_contig-31_plasmid-0 = 0
 counted_seed: counted-seed_contig-49_plasmid-0 = 0
 counted_seed: counted-seed_contig-51_plasmid-0 = 0
 counted_seed: counted-seed_contig-50_plasmid-0 = 0
 counted_seed: counted-seed_contig-53_plasmid-0 = 0
 counted_seed: counted-seed_contig-34_plasmid-0 = 0
 counted_seed: counted-seed_contig-33_plasmid-0 = 0
 counted_seed: counted-seed_contig-55_plasmid-0 = 0
 counted_seed: counted-seed_contig-37_plasmid-0 = 0
 counted_seed: counted-seed_contig-18_plasmid-0 = 0
 counted_seed: counted-seed_contig-57_plasmid-0 = 0
 seed_existence: counted-seed_contig-56_plasmid-0
   + counted-seed_contig-54_plasmid-0 + counted-seed_contig-42_plasmid-0
   + counted-seed_contig-48_plasmid-0 + counted-seed_contig-60_plasmid-0
   + counted-seed_contig-61_plasmid-0 + counted-seed_contig-62_plasmid-0
   + counted-seed_contig-63_plasmid-0 + counted-seed_contig-64_plasmid-0
   + counted-seed_contig-49_plasmid-0 + counted-seed_contig-66_plasmid-0
   + counted-seed_contig-67_plasmid-0 + counted-seed_contig-68_plasmid-0
   + counted-seed_contig-69_plasmid-0 + counted-seed_contig-53_plasmid-0
   + counted-seed_contig-24_plasmid-0 + counted-seed_contig-25_plasmid-0
   + counted-seed_contig-27_plasmid-0 + counted-seed_contig-20_plasmid-0
   + counted-seed_contig-21_plasmid-0 + counted-seed_contig-23_plasmid-0
   + counted-seed_contig-46_plasmid-0 + counted-seed_contig-47_plasmid-0
   + counted-seed_contig-44_plasmid-0 + counted-seed_contig-45_plasmid-0
   + counted-seed_contig-28_plasmid-0 + counted-seed_contig-29_plasmid-0
   + counted-seed_contig-41_plasmid-0 + counted-seed_contig-3_plasmid-0
   + counted-seed_contig-7_plasmid-0 + counted-seed_contig-51_plasmid-0
   + counted-seed_contig-39_plasmid-0 + counted-seed_contig-65_plasmid-0
   + counted-seed_contig-38_plasmid-0 + counted-seed_contig-73_plasmid-0
   + counted-seed_contig-72_plasmid-0 + counted-seed_contig-71_plasmid-0
   + counted-seed_contig-70_plasmid-0 + counted-seed_contig-59_plasmid-0
   + counted-seed_contig-58_plasmid-0 + counted-seed_contig-11_plasmid-0
   + counted-seed_contig-12_plasmid-0 + counted-seed_contig-15_plasmid-0
   + counted-seed_contig-14_plasmid-0 + counted-seed_contig-17_plasmid-0
   + counted-seed_contig-16_plasmid-0 + counted-seed_contig-19_plasmid-0
   + counted-seed_contig-18_plasmid-0 + counted-seed_contig-31_plasmid-0
   + counted-seed_contig-30_plasmid-0 + counted-seed_contig-37_plasmid-0
   + counted-seed_contig-35_plasmid-0 + counted-seed_contig-34_plasmid-0
   + counted-seed_contig-33_plasmid-0 + counted-seed_contig-55_plasmid-0
   + counted-seed_contig-32_plasmid-0 + counted-seed_contig-57_plasmid-0
   + counted-seed_contig-50_plasmid-0 >= 1
Bounds
 counted-seed_contig-56_plasmid-0 free
 counted-seed_contig-54_plasmid-0 free
 counted-seed_contig-42_plasmid-0 free
 counted-seed_contig-48_plasmid-0 free
 counted-seed_contig-60_plasmid-0 free
 counted-seed_contig-61_plasmid-0 free
 counted-seed_contig-62_plasmid-0 free
 counted-seed_contig-63_plasmid-0 free
 counted-seed_contig-64_plasmid-0 free
 counted-seed_contig-49_plasmid-0 free
 counted-seed_contig-66_plasmid-0 free
 counted-seed_contig-67_plasmid-0 free
 counted-seed_contig-68_plasmid-0 free
 counted-seed_contig-69_plasmid-0 free
 counted-seed_contig-53_plasmid-0 free
 counted-seed_contig-24_plasmid-0 free
 counted-seed_contig-25_plasmid-0 free
 counted-seed_contig-27_plasmid-0 free
 counted-seed_contig-20_plasmid-0 free
 counted-seed_contig-21_plasmid-0 free
 counted-seed_contig-23_plasmid-0 free
 counted-seed_contig-46_plasmid-0 free
 counted-seed_contig-47_plasmid-0 free
 counted-seed_contig-44_plasmid-0 free
 counted-seed_contig-45_plasmid-0 free
 counted-seed_contig-28_plasmid-0 free
 counted-seed_contig-29_plasmid-0 free
 counted-seed_contig-41_plasmid-0 free
 counted-seed_contig-3_plasmid-0 free
 counted-seed_contig-7_plasmid-0 free
 counted-seed_contig-51_plasmid-0 free
 counted-seed_contig-39_plasmid-0 free
 counted-seed_contig-65_plasmid-0 free
 counted-seed_contig-38_plasmid-0 free
 counted-seed_contig-73_plasmid-0 free
 counted-seed_contig-72_plasmid-0 free
 counted-seed_contig-71_plasmid-0 free
 counted-seed_contig-70_plasmid-0 free
 counted-seed_contig-59_plasmid-0 free
 counted-seed_contig-58_plasmid-0 free
 counted-seed_contig-11_plasmid-0 free
 counted-seed_contig-12_plasmid-0 free
 counted-seed_contig-15_plasmid-0 free
 counted-seed_contig-14_plasmid-0 free
 counted-seed_contig-17_plasmid-0 free
 counted-seed_contig-16_plasmid-0 free
 counted-seed_contig-19_plasmid-0 free
 counted-seed_contig-18_plasmid-0 free
 counted-seed_contig-31_plasmid-0 free
 counted-seed_contig-30_plasmid-0 free
 counted-seed_contig-37_plasmid-0 free
 counted-seed_contig-35_plasmid-0 free
 counted-seed_contig-34_plasmid-0 free
 counted-seed_contig-33_plasmid-0 free
 counted-seed_contig-55_plasmid-0 free
 counted-seed_contig-32_plasmid-0 free
 counted-seed_contig-57_plasmid-0 free
 counted-seed_contig-50_plasmid-0 free
Binaries
 contig-12_plasmid-0 contigext-12h_plasmid-0 contigext-12t_plasmid-0
 contig-17_plasmid-0 contigext-17h_plasmid-0 contigext-17t_plasmid-0
Generals
 counted-seed_contig-56_plasmid-0 counted-seed_contig-54_plasmid-0
 counted-seed_contig-42_plasmid-0 counted-seed_contig-48_plasmid-0
 counted-seed_contig-60_plasmid-0 counted-seed_contig-61_plasmid-0
 counted-seed_contig-62_plasmid-0 counted-seed_contig-63_plasmid-0
 counted-seed_contig-64_plasmid-0 counted-seed_contig-49_plasmid-0
 counted-seed_contig-66_plasmid-0 counted-seed_contig-67_plasmid-0
 counted-seed_contig-68_plasmid-0 counted-seed_contig-69_plasmid-0
 counted-seed_contig-53_plasmid-0 counted-seed_contig-24_plasmid-0
 counted-seed_contig-25_plasmid-0 counted-seed_contig-27_plasmid-0
 counted-seed_contig-20_plasmid-0 counted-seed_contig-21_plasmid-0
 counted-seed_contig-23_plasmid-0 counted-seed_contig-46_plasmid-0
 counted-seed_contig-47_plasmid-0 counted-seed_contig-44_plasmid-0
 counted-seed_contig-45_plasmid-0 counted-seed_contig-28_plasmid-0
 counted-seed_contig-29_plasmid-0 counted-seed_contig-41_plasmid-0
 counted-seed_contig-3_plasmid-0 counted-seed_contig-7_plasmid-0
 counted-seed_contig-51_plasmid-0 counted-seed_contig-39_plasmid-0
 counted-seed_contig-65_plasmid-0 counted-seed_contig-38_plasmid-0
 counted-seed_contig-73_plasmid-0 counted-seed_contig-72_plasmid-0
 counted-seed_contig-71_plasmid-0 counted-seed_contig-70_plasmid-0
 counted-seed_contig-59_plasmid-0 counted-seed_contig-58_plasmid-0
 counted-seed_contig-11_plasmid-0 counted-seed_contig-12_plasmid-0
 counted-seed_contig-15_plasmid-0 counted-seed_contig-14_plasmid-0
 counted-seed_contig-17_plasmid-0 counted-seed_contig-16_plasmid-0
 counted-seed_contig-19_plasmid-0 counted-seed_contig-18_plasmid-0
 counted-seed_contig-31_plasmid-0 counted-seed_contig-30_plasmid-0
 counted-seed_contig-37_plasmid-0 counted-seed_contig-35_plasmid-0
 counted-seed_contig-34_plasmid-0 counted-seed_contig-33_plasmid-0
 counted-seed_contig-55_plasmid-0 counted-seed_contig-32_plasmid-0
 counted-seed_contig-57_plasmid-0 counted-seed_contig-50_plasmid-0
End
